
Gurobi 10.0.2 (linux64) logging started Sun 21 Jul 2024 05:41:23 AM -05

Set parameter LogFile to value "gurobi.log"
Gurobi Optimizer version 10.0.2 build v10.0.2rc0 (linux64)

CPU model: Intel(R) Core(TM) i5-1035G1 CPU @ 1.00GHz, instruction set [SSE2|AVX|AVX2|AVX512]
Thread count: 4 physical cores, 8 logical processors, using up to 8 threads

Academic license 2446675 - for non-commercial use only - registered to mi___@epn.edu.ec
Optimize a model with 9909 rows, 4358 columns and 95270 nonzeros
Model fingerprint: 0x285afc41
Variable types: 0 continuous, 4358 integer (1187 binary)
Coefficient statistics:
  Matrix range     [5e-01, 2e+03]
  Objective range  [1e+00, 1e+00]
  Bounds range     [1e+00, 3e+03]
  RHS range        [1e+00, 5e+03]
Presolve removed 8819 rows and 3234 columns
Presolve time: 0.07s
Presolved: 1090 rows, 1124 columns, 4596 nonzeros
Variable types: 0 continuous, 1124 integer (1008 binary)

Root relaxation: objective 9.213500e+04, 493 iterations, 0.01 seconds (0.00 work units)

    Nodes    |    Current Node    |     Objective Bounds      |     Work
 Expl Unexpl |  Obj  Depth IntInf | Incumbent    BestBd   Gap | It/Node Time

     0     0 92135.0000    0   70          - 92135.0000      -     -    0s
H    0     0                    92135.000000 92135.0000  0.00%     -    0s
     0     0 92135.0000    0   60 92135.0000 92135.0000  0.00%     -    0s

Cutting planes:
  Gomory: 4
  MIR: 1
  RLT: 1
  Relax-and-lift: 1

Explored 1 nodes (2124 simplex iterations) in 0.20 seconds (0.16 work units)
Thread count was 8 (of 8 available processors)

Solution count 1: 92135 

Optimal solution found (tolerance 1.00e-04)
Best objective 9.213500000000e+04, best bound 9.213500000000e+04, gap 0.0000%
